
Gurobi 9.1.2 (linux64, gurobi_cl) logging started Fri Jul 30 13:55:08 2021

Using license file /opt/gurobi/gurobi.lic
Set parameter TimeLimit to value 600
Set parameter Heuristics to value 0.1
Set parameter Cuts to value 2
Set parameter LogFile to value 912-Cuts2-Heuristics0.1-glass4-0.log

Gurobi Optimizer version 9.1.2 build v9.1.2rc0 (linux64)
Copyright (c) 2021, Gurobi Optimization, LLC

Read MPS format model from file /nfs/models/mip/glass4.mps.bz2
Reading time = 0.00 seconds
glass4: 396 rows, 322 columns, 1815 nonzeros
Thread count: 4 physical cores, 8 logical processors, using up to 8 threads
Optimize a model with 396 rows, 322 columns and 1815 nonzeros
Model fingerprint: 0x0a9d9037
Variable types: 20 continuous, 302 integer (0 binary)
Coefficient statistics:
  Matrix range     [1e+00, 8e+06]
  Objective range  [1e+00, 1e+06]
  Bounds range     [1e+00, 8e+02]
  RHS range        [1e+00, 8e+06]
Presolve removed 6 rows and 6 columns
Presolve time: 0.00s
Presolved: 390 rows, 316 columns, 1803 nonzeros
Variable types: 19 continuous, 297 integer (297 binary)
Found heuristic solution: objective 3.133356e+09

Root relaxation: objective 8.000024e+08, 72 iterations, 0.00 seconds

    Nodes    |    Current Node    |     Objective Bounds      |     Work
 Expl Unexpl |  Obj  Depth IntInf | Incumbent    BestBd   Gap | It/Node Time

     0     0 8.0000e+08    0   72 3.1334e+09 8.0000e+08  74.5%     -    0s
H    0     0                    2.200019e+09 8.0000e+08  63.6%     -    0s
H    0     0                    2.000016e+09 8.0000e+08  60.0%     -    0s
     0     0 8.0000e+08    0   72 2.0000e+09 8.0000e+08  60.0%     -    0s
     0     0 8.0000e+08    0   72 2.0000e+09 8.0000e+08  60.0%     -    0s
     0     2 8.0000e+08    0   72 2.0000e+09 8.0000e+08  60.0%     -    0s
H   37    40                    2.000016e+09 8.0000e+08  60.0%  11.1    0s
H  145   189                    1.966683e+09 8.0000e+08  59.3%   4.7    0s
H  485   515                    1.888905e+09 8.0000e+08  57.6%   3.6    0s
*  930   895             114    1.866683e+09 8.0000e+08  57.1%   4.7    0s
H  936   895                    1.866682e+09 8.0000e+08  57.1%   4.9    0s
H 1053   845                    1.866680e+09 8.0000e+08  57.1%   5.3    0s
H 1055   804                    1.766680e+09 8.0000e+08  54.7%   5.3    0s
H 1058   765                    1.750014e+09 8.0000e+08  54.3%   5.3    0s
H 1058   727                    1.750014e+09 8.0000e+08  54.3%   5.3    0s
H 1090   720                    1.700013e+09 8.0000e+08  52.9%   7.2    0s
H 1094   685                    1.700013e+09 8.0000e+08  52.9%   7.3    0s
H 1097   651                    1.683346e+09 8.0000e+08  52.5%   7.3    0s
H 1178   686                    1.666679e+09 8.0000e+08  52.0%   8.1    1s
H 1180   656                    1.650014e+09 8.0000e+08  51.5%   8.1    1s
H 1224   654                    1.640014e+09 8.0000e+08  51.2%   8.4    1s
H 1226   627                    1.622236e+09 8.0000e+08  50.7%   8.6    1s
H 1511   697                    1.622236e+09 8.0000e+08  50.7%  10.9    2s
* 2181   981              75    1.600016e+09 8.0001e+08  50.0%  16.4    3s
H 2804  1214                    1.587516e+09 8.0001e+08  49.6%  17.8    3s
H 3848  1922                    1.587516e+09 8.0001e+08  49.6%  20.3    4s
  3852  1924 1.4000e+09   51   33 1.5875e+09 8.0001e+08  49.6%  20.3    5s
H14698  8007                    1.500012e+09 8.5655e+08  42.9%  18.8    7s
H24234 11043                    1.455568e+09 9.0001e+08  38.2%  18.9    9s
*24236 11024              52    1.450013e+09 9.0001e+08  37.9%  18.9    9s
*24238 11024              51    1.450013e+09 9.0001e+08  37.9%  18.9    9s
 24834 11106 1.4000e+09   50   42 1.4500e+09 9.0001e+08  37.9%  18.9   10s
*28405 12140              65    1.400013e+09 9.0001e+08  35.7%  19.0   10s
*35545 11511              58    1.350013e+09 9.5001e+08  29.6%  21.2   13s
*36139  8379              56    1.280022e+09 9.7043e+08  24.2%  21.4   13s
*36964  7951              28    1.266680e+09 1.0000e+09  21.1%  22.4   13s
*36965  6983              28    1.200013e+09 1.0000e+09  16.7%  22.4   13s
 41085  2762 infeasible   46      1.2000e+09 1.1000e+09  8.33%  22.7   15s

Cutting planes:
  Gomory: 104
  Cover: 278
  Implied bound: 240
  Projected implied bound: 7
  MIR: 48
  Flow cover: 508
  Inf proof: 35
  RLT: 57
  Relax-and-lift: 171

Explored 42752 nodes (958895 simplex iterations) in 15.22 seconds
Thread count was 8 (of 8 available processors)

Solution count 10: 1.20001e+09 1.26668e+09 1.28002e+09 ... 1.58752e+09

Optimal solution found (tolerance 1.00e-04)
Best objective 1.200012600000e+09, best bound 1.200004572198e+09, gap 0.0007%
